db/inputs/1610432574278091790927713169302625611256.smt2
(set-logic QF_FP)
(declare-const x0 (_ FloatingPoint 8 24))
(declare-const x1 (_ FloatingPoint 8 24))
(declare-const x2 (_ FloatingPoint 8 24))
(declare-const x3 (_ FloatingPoint 8 24))
(declare-const x4 (_ FloatingPoint 8 24))
(declare-const x5 (_ FloatingPoint 8 24))
(assert (fp.eq (fp.neg (fp.add RNE (fp.div RNE x4 x1) (fp.sub RNE x5 x5))) (fp.div RNE (fp.neg (fp.neg x0)) (fp.mul RNE (fp.add RNE x5 x5) (fp.mul RNE x1 x4)))))
(check-sat)
