db/data/1610432574278091790927713169302625611256.z3.out
sat
-------------------
9.515904578
